teachers = 10;
timeslots = 10;

solutions = 18;

solution_lab = [
1, 1, 1, 1,
2, 2,
3, 3, 3, 3,
4, 4,
5, 5,
6, 6, 6, 6
];

solution_group = [
{1,2}, {3,4}, {5, 6}, {7},
{5,2}, {8,4},
{5,7}, {2,8}, {1,4}, {6,3},
{1,5}, {9,10},
{4,11}, {2,12},
{6}, {13,14}, {5,7}, {10,1}
];
